(set-logic QF_NRA)
(declare-fun v0 () Real)
(declare-fun th0 () Real)
(declare-fun zp_0_6 () Real)
(declare-fun zq_0_6 () Real)
(declare-fun v6 () Real)
(declare-fun th6 () Real)
(declare-fun zp_6_0 () Real)
(declare-fun zq_6_0 () Real)
(declare-fun v9 () Real)
(declare-fun th9 () Real)
(declare-fun zp_9_12 () Real)
(declare-fun zq_9_12 () Real)
(declare-fun v12 () Real)
(declare-fun th12 () Real)
(declare-fun zp_12_0 () Real)
(declare-fun zq_12_0 () Real)
(declare-fun v23 () Real)
(declare-fun th23 () Real)
(declare-fun zp_23_9 () Real)
(declare-fun zq_23_9 () Real)
(assert (<= v0 2))
(assert (>= v0 0))
(assert (<= th0 4))
(assert (>= th0 -4))
(assert (<= zp_0_6 3))
(assert (>= zp_0_6 -3))
(assert (<= zq_0_6 3))
(assert (>= zq_0_6 -3))
(assert (<= v6 2))
(assert (>= v6 0))
(assert (<= th6 4))
(assert (>= th6 -4))
(assert (<= zp_6_0 3))
(assert (>= zp_6_0 -3))
(assert (<= zq_6_0 3))
(assert (>= zq_6_0 -3))
(assert (<= v9 2))
(assert (>= v9 0))
(assert (<= th9 4))
(assert (>= th9 -4))
(assert (<= zp_9_12 3))
(assert (>= zp_9_12 -3))
(assert (<= zq_9_12 3))
(assert (>= zq_9_12 -3))
(assert (<= v12 2))
(assert (>= v12 0))
(assert (<= th12 4))
(assert (>= th12 -4))
(assert (<= zp_12_0 3))
(assert (>= zp_12_0 -3))
(assert (<= zq_12_0 3))
(assert (>= zq_12_0 -3))
(assert (<= v23 2))
(assert (>= v23 0))
(assert (<= th23 4))
(assert (>= th23 -4))
(assert (<= zp_23_9 3))
(assert (>= zp_23_9 -3))
(assert (<= zq_23_9 3))
(assert (>= zq_23_9 -3))
(assert (and (and (and (and (and (and (and (and (and (and true (and (= zp_23_9 (- (- (* (^ v23 2) 0.062920) (* v23 (* v9 (* 0.062920 (cos (- th23 th9)))))) (* v23 (* v9 (* 0.014198 (sin (- th23 th9))))))) (= zq_23_9 (- (- (- 0 (* (^ v23 2) 0.062920)) (* v23 (* v9 (* 0.014198 (cos (- th23 th9)))))) (* v23 (* v9 (* 0.062920 (sin (- th23 th9))))))))) (and (= zp_9_12 (- (- (* (^ v9 2) 0.180623) (* v9 (* v12 (* 0.180623 (cos (- th9 th12)))))) (* v9 (* v12 (* 0.171313 (sin (- th9 th12))))))) (= zq_9_12 (- (- (- 0 (* (^ v9 2) 0.180623)) (* v9 (* v12 (* 0.171313 (cos (- th9 th12)))))) (* v9 (* v12 (* 0.180623 (sin (- th9 th12))))))))) (and (= zp_12_0 (- (- (* (^ v12 2) 0.141990) (* v12 (* v0 (* 0.141990 (cos (- th12 th0)))))) (* v12 (* v0 (* 0.192034 (sin (- th12 th0))))))) (= zq_12_0 (- (- (- 0 (* (^ v12 2) 0.141990)) (* v12 (* v0 (* 0.192034 (cos (- th12 th0)))))) (* v12 (* v0 (* 0.141990 (sin (- th12 th0))))))))) (and (= zp_0_6 (- (- (* (^ v0 2) 0.159291) (* v0 (* v6 (* 0.159291 (cos (- th0 th6)))))) (* v0 (* v6 (* 0.083025 (sin (- th0 th6))))))) (= zq_0_6 (- (- (- 0 (* (^ v0 2) 0.159291)) (* v0 (* v6 (* 0.083025 (cos (- th0 th6)))))) (* v0 (* v6 (* 0.159291 (sin (- th0 th6))))))))) (and (= zp_6_0 (- (- (* (^ v6 2) 0.159291) (* v6 (* v0 (* 0.159291 (cos (- th6 th0)))))) (* v6 (* v0 (* 0.083025 (sin (- th6 th0))))))) (= zq_6_0 (- (- (- 0 (* (^ v6 2) 0.159291)) (* v6 (* v0 (* 0.083025 (cos (- th6 th0)))))) (* v6 (* v0 (* 0.159291 (sin (- th6 th0))))))))) (and (= zp_0_6 (- (- (* (^ v0 2) 0.159291) (* v0 (* v6 (* 0.159291 (cos (- th0 th6)))))) (* v0 (* v6 (* 0.083025 (sin (- th0 th6))))))) (= zq_0_6 (- (- (- 0 (* (^ v0 2) 0.159291)) (* v0 (* v6 (* 0.083025 (cos (- th0 th6)))))) (* v0 (* v6 (* 0.159291 (sin (- th0 th6))))))))) (and (= zp_6_0 (- (- (* (^ v6 2) 0.159291) (* v6 (* v0 (* 0.159291 (cos (- th6 th0)))))) (* v6 (* v0 (* 0.083025 (sin (- th6 th0))))))) (= zq_6_0 (- (- (- 0 (* (^ v6 2) 0.159291)) (* v6 (* v0 (* 0.083025 (cos (- th6 th0)))))) (* v6 (* v0 (* 0.159291 (sin (- th6 th0))))))))) (and (= zp_0_6 (- (- (* (^ v0 2) 0.159291) (* v0 (* v6 (* 0.159291 (cos (- th0 th6)))))) (* v0 (* v6 (* 0.083025 (sin (- th0 th6))))))) (= zq_0_6 (- (- (- 0 (* (^ v0 2) 0.159291)) (* v0 (* v6 (* 0.083025 (cos (- th0 th6)))))) (* v0 (* v6 (* 0.159291 (sin (- th0 th6))))))))) (and (= zp_6_0 (- (- (* (^ v6 2) 0.159291) (* v6 (* v0 (* 0.159291 (cos (- th6 th0)))))) (* v6 (* v0 (* 0.083025 (sin (- th6 th0))))))) (= zq_6_0 (- (- (- 0 (* (^ v6 2) 0.159291)) (* v6 (* v0 (* 0.083025 (cos (- th6 th0)))))) (* v6 (* v0 (* 0.159291 (sin (- th6 th0))))))))) (and (= zp_0_6 (- (- (* (^ v0 2) 0.159291) (* v0 (* v6 (* 0.159291 (cos (- th0 th6)))))) (* v0 (* v6 (* 0.083025 (sin (- th0 th6))))))) (= zq_0_6 (- (- (- 0 (* (^ v0 2) 0.159291)) (* v0 (* v6 (* 0.083025 (cos (- th0 th6)))))) (* v0 (* v6 (* 0.159291 (sin (- th0 th6))))))))))
(check-sat)
(exit)
